!!! Generated by AiiDA !!!
ChargeMethod Ewald
CutOff 12.0
EwaldPrecision 1e-06
Forcefield Local
MaxGradientTolerance 1e-06
MaximumNumberOfMinimizationSteps 10000
NumberOfCycles 1
NumberOfInitializationCycles 0
PrintEvery 1
PrintPropertiesEvery 10000000000
RMSGradientTolerance 1e-06
RemoveAtomNumberCodeFromLabel yes
RestartFile yes
SimulationType Minimization
UseChargesFromCIFFile yes
WriteBinaryRestartFileEvery 1000
Framework 0
   FrameworkName framework_1
   ExternalTemperature 50
   UnitCells 4 2 2
Component 0 MoleculeName O2
   CreateNumberOfMolecules 0
   MoleculeDefinition Local
   ReinsertionProbability 1.0
   RotationProbability 1.0
   TranslationProbability 1.0
