!!! Generated by AiiDA !!!
ChargeMethod Ewald
CutOff 12.0
Forcefield Local
NumberOfCycles 1000
NumberOfInitializationCycles 1000
PrintEvery 100.0
PrintPropertiesEvery 10000000000
RemoveAtomNumberCodeFromLabel yes
SimulationType MonteCarlo
UseChargesFromCIFFile yes
WriteBinaryRestartFileEvery 1000
Box 0
   BoxLengths 36.0 36.0 36.0
   ExternalPressure 10000.0
   ExternalTemperature 200
Component 0 MoleculeName CO
   NumberOfIdentityChanges 3
   IdentityChangesList 0 1 2
   IdentityChangeProbability 2.0
   MolFraction 0.2
   MoleculeDefinition Local
   ReinsertionProbability 1.0
   RotationProbability 1.0
   SwapProbability 2.0
   TranslationProbability 1.0
Component 1 MoleculeName C2H4
   NumberOfIdentityChanges 3
   IdentityChangesList 0 1 2
   IdentityChangeProbability 2.0
   MolFraction 0.3
   MoleculeDefinition Local
   ReinsertionProbability 1.0
   RotationProbability 1.0
   SwapProbability 2.0
   TranslationProbability 1.0
Component 2 MoleculeName C2H6
   NumberOfIdentityChanges 3
   IdentityChangesList 0 1 2
   IdentityChangeProbability 2.0
   MolFraction 0.5
   MoleculeDefinition Local
   ReinsertionProbability 1.0
   RotationProbability 1.0
   SwapProbability 2.0
   TranslationProbability 1.0
