!!! Generated by AiiDA !!!
ChargeMethod Ewald
CutOff 12.0
EwaldPrecision 1e-06
Forcefield Local
NumberOfCycles 100
NumberOfInitializationCycles 0
PrintEvery 10000000000
PrintPropertiesEvery 10.0
RemoveAtomNumberCodeFromLabel yes
SimulationType MonteCarlo
UseChargesFromCIFFile yes
WriteBinaryRestartFileEvery 1000
Framework 0
   FrameworkName framework_1
   ExternalTemperature 400
   HeliumVoidFraction 0.582
   UnitCells 4 2 2
Component 0 MoleculeName CO2
   MoleculeDefinition Local
   WidomProbability 1.0
