 # Version information for this restart file 
 # current date 2020-11-17 11:40:44.254
 # current working dir /private/var/folders/8y/7c7qkxcx5vxb749rt3sw5sh40000gp/T/tmpj0jjpx93/b7/f1/9e3e-e2c6-4515-8883-272e98092e48
 # Program compiled at                              Tue Nov 17 02:47:52 CET 2020
 # Program compiled on                                             B126028.local
 # Program compiled for                           Darwin-IntelMacintosh-gfortran
 # Source code revision number                                         svn:18464
 &GLOBAL
   PRINT_LEVEL  MEDIUM
   PROJECT_NAME aiida
   RUN_TYPE  GEO_OPT
 &END GLOBAL
 &MOTION
   &GEO_OPT
     TYPE  MINIMIZATION
     OPTIMIZER  BFGS
     MAX_ITER  2
     MAX_DR     3.0000000000000001E-03
     MAX_FORCE     4.4999999999999999E-04
     RMS_DR     1.5000000000000000E-03
     RMS_FORCE     2.9999999999999997E-04
     STEP_START_VAL  1
     &BFGS
       TRUST_RADIUS     2.5000000000000000E-01
     &END BFGS
   &END GEO_OPT
   &PRINT
     &TRAJECTORY  SILENT
       FORMAT  DCD_ALIGNED_CELL
       &EACH
         MD  1
         GEO_OPT  1
         CELL_OPT  1
       &END EACH
     &END TRAJECTORY
     &CELL  OFF
     &END CELL
     &VELOCITIES  OFF
     &END VELOCITIES
     &FORCES  OFF
     &END FORCES
     &STRESS  OFF
     &END STRESS
     &RESTART  SILENT
       BACKUP_COPIES  0
       &EACH
         MD  1
         GEO_OPT  1
         CELL_OPT  1
       &END EACH
     &END RESTART
     &RESTART_HISTORY  OFF
     &END RESTART_HISTORY
   &END PRINT
 &END MOTION
 &FORCE_EVAL
   METHOD  QS
   STRESS_TENSOR  ANALYTICAL
   &DFT
     BASIS_SET_FILE_NAME BASIS_MOLOPT
     BASIS_SET_FILE_NAME BASIS_MOLOPT_UCL
     POTENTIAL_FILE_NAME GTH_POTENTIALS
     UKS  F
     MULTIPLICITY  1
     CHARGE  0
     &SCF
       MAX_ITER_LUMO  10000
       MAX_SCF  500
       EPS_SCF     9.9999999999999995E-08
       SCF_GUESS  ATOMIC
       ADDED_MOS  100
       &OT  F
         MINIMIZER  DIIS
         PRECONDITIONER  FULL_ALL
       &END OT
       &DIAGONALIZATION  T
         ALGORITHM  STANDARD
       &END DIAGONALIZATION
       &OUTER_SCF  F
         EPS_SCF     9.9999999999999995E-08
         MAX_SCF  5
       &END OUTER_SCF
       &SMEAR  T
         METHOD  FERMI_DIRAC
         ELECTRONIC_TEMPERATURE     3.0000000000000000E+02
       &END SMEAR
       &MIXING  T
         METHOD  BROYDEN_MIXING
         ALPHA     4.0000000000000002E-01
         BETA     5.0000000000000000E-01
         NBUFFER  8
       &END MIXING
     &END SCF
     &QS
       EPS_DEFAULT     1.0000000000000000E-10
       EXTRAPOLATION  USE_PREV_WF
       METHOD  GPW
     &END QS
     &MGRID
       NGRIDS  4
       CUTOFF     2.5000000000000000E+02
       REL_CUTOFF     3.0000000000000000E+01
     &END MGRID
     &XC
       DENSITY_CUTOFF     1.0000000000000000E-10
       GRADIENT_CUTOFF     1.0000000000000000E-10
       TAU_CUTOFF     1.0000000000000000E-10
       &XC_FUNCTIONAL  NO_SHORTCUT
         &PBE  T
           PARAMETRIZATION  ORIG
         &END PBE
       &END XC_FUNCTIONAL
       &VDW_POTENTIAL
         POTENTIAL_TYPE  PAIR_POTENTIAL
         &PAIR_POTENTIAL
           TYPE  DFTD3(BJ)
           PARAMETER_FILE_NAME dftd3.dat
           REFERENCE_FUNCTIONAL PBE
         &END PAIR_POTENTIAL
       &END VDW_POTENTIAL
     &END XC
     &PRINT
       &MO_CUBES  SILENT
         ADD_LAST  SYMBOLIC
         WRITE_CUBE  F
         NLUMO  1
         NHOMO  1
         &EACH
           MD  0
           GEO_OPT  0
           CELL_OPT  0
         &END EACH
       &END MO_CUBES
       &MULLIKEN  ON
         ADD_LAST  SYMBOLIC
         &EACH
           MD  0
           GEO_OPT  0
           CELL_OPT  0
         &END EACH
       &END MULLIKEN
       &LOWDIN  OFF
       &END LOWDIN
       &HIRSHFELD  OFF
       &END HIRSHFELD
     &END PRINT
   &END DFT
   &SUBSYS
     &CELL
       A     4.0495799999999997E+00    0.0000000000000000E+00    0.0000000000000000E+00
       B     0.0000000000000000E+00    4.0495799999999997E+00    0.0000000000000000E+00
       C     0.0000000000000000E+00    0.0000000000000000E+00    4.0495799999999997E+00
       MULTIPLE_UNIT_CELL  1 1 1
     &END CELL
     &COORD
Al    5.9944325295952837E-12    5.9942760915690189E-12    5.9938526194973291E-12
Al    5.7204718808558822E-12    2.0247899999992156E+00    2.0247899999992258E+00
Al    2.0247899999992169E+00    5.7188836773711908E-12    2.0247899999992081E+00
Al    2.0247899999992125E+00    2.0247899999992174E+00    5.7170422110579549E-12
     &END COORD
     &KIND Al
       BASIS_SET DZVP-MOLOPT-SR-GTH-q3
       MAGNETIZATION     0.0000000000000000E+00
       POTENTIAL GTH-PBE-q3
       &POTENTIAL
 2 1
  0.4500000000000000E+00 1 -0.7554761260000000E+01
 2
  0.4874352900000000E+00 2  0.6959938320000000E+01 -0.1888835840000000E+01
  0.2438476590000000E+01
  0.5621894900000000E+00 1  0.1865298570000000E+01
         # Potential name:  GTH-PBE-Q3  for symbol:  AL
         # Potential read from the potential filename: GTH_POTENTIALS
       &END POTENTIAL
     &END KIND
     &TOPOLOGY
       COORD_FILE_NAME aiida.coords.xyz
       COORD_FILE_FORMAT  XYZ
       NUMBER_OF_ATOMS  4
       MULTIPLE_UNIT_CELL  1 1 1
     &END TOPOLOGY
   &END SUBSYS
 &END FORCE_EVAL
