!!! Generated by AiiDA !!!
ChargeMethod Ewald
CutOff 12.0
EwaldPrecision 1e-06
Forcefield Local
NumberOfCycles 10
PrintEvery 0.1
PrintPropertiesEvery 10000000000
RemoveAtomNumberCodeFromLabel yes
SimulationType MonteCarlo
UseChargesFromCIFFile yes
WriteBinaryRestartFileEvery 1000
Framework 0
   FrameworkName framework_1
   ExternalTemperature 300
   UnitCells 4 2 2
Component 0 MoleculeName CO2
   CreateNumberOfMolecules 1
   MoleculeDefinition Local
   RandomTranslationProbability 0.0
   ReinsertionProbability 1.0
   RotationProbability 1.0
   TranslationProbability 1.0
