 # Version information for this restart file 
 # current date 2021-01-13 14:35:48.107
 # current working dir /private/var/folders/8y/7c7qkxcx5vxb749rt3sw5sh40000gp/T/tmpempsb0kn/86/48/6f5a-b940-486e-a540-a24bed09a8fb
 # Program compiled at                              Thu Dec 24 12:31:26 UTC 2020
 # Program compiled on                                   Mac-1608811933078.local
 # Program compiled for                                      Darwin-x86-64-conda
 # Source code revision number                                       git:e635599
 &GLOBAL
   PRINT_LEVEL  MEDIUM
   PROJECT_NAME aiida
   RUN_TYPE  MD
 &END GLOBAL
 &MOTION
   &GEO_OPT
     TYPE  MINIMIZATION
     OPTIMIZER  BFGS
     MAX_ITER  2
     MAX_DR     3.0000000000000001E-03
     MAX_FORCE     4.4999999999999999E-04
     RMS_DR     1.5000000000000000E-03
     RMS_FORCE     2.9999999999999997E-04
     &BFGS
       TRUST_RADIUS     2.5000000000000000E-01
     &END BFGS
   &END GEO_OPT
   &MD
     ENSEMBLE  NVT
     STEPS  2
     TIMESTEP     9.9999999999999989E-01
     STEP_START_VAL  2
     TIME_START_VAL     1.9999999999999998E+00
     ECONS_START_VAL    -8.0768524707346732E+00
     TEMPERATURE     3.0000000000000000E+02
     &THERMOSTAT
       TYPE  CSVR
       &CSVR
         TIMECON     9.9999999999999986E+01
         &THERMOSTAT_ENERGY
               4.5391085659793199E-04
         &END THERMOSTAT_ENERGY
         &RNG_INIT
Wiener process for Thermostat # 1        1 F T F   1.0626533131930160E+00        2328922060.0        2905044777.0        3319542935.0        1538949648.0         347556051.0         347278673.0             12345.0             12345.0             12345.0             12345.0             12345.0             12345.0             12345.0             12345.0             12345.0             12345.0             12345.0             12345.0
         &END RNG_INIT
       &END CSVR
     &END THERMOSTAT
     &AVERAGES  T
       &RESTART_AVERAGES
         ITIMES_START  1
         AVECPU     8.5942385196685791E+00
         AVEHUGONIOT     0.0000000000000000E+00
         AVETEMP_BARO     0.0000000000000000E+00
         AVEPOT    -8.0811211385130637E+00
         AVEKIN     3.9420642805109039E-03
         AVETEMP     2.7662310226424506E+02
         AVEKIN_QM     0.0000000000000000E+00
         AVETEMP_QM     0.0000000000000000E+00
         AVEVOL     4.4815325551634805E+02
         AVECELL_A     7.6525971532110413E+00
         AVECELL_B     7.6525971532110413E+00
         AVECELL_C     7.6525971532110413E+00
         AVEALPHA     9.0000000000000000E+01
         AVEBETA     9.0000000000000000E+01
         AVEGAMMA     9.0000000000000000E+01
         AVE_ECONS    -1.6573079960854645E-04
         AVE_PRESS     5.8230784643005711E+04
         AVE_PXX     6.0193168759654036E+04
       &END RESTART_AVERAGES
     &END AVERAGES
   &END MD
   &PRINT
     &TRAJECTORY  SILENT
       FORMAT  DCD_ALIGNED_CELL
       &EACH
         MD  1
         GEO_OPT  1
         CELL_OPT  1
       &END EACH
     &END TRAJECTORY
     &CELL  OFF
     &END CELL
     &VELOCITIES  OFF
     &END VELOCITIES
     &FORCES  OFF
     &END FORCES
     &STRESS  OFF
     &END STRESS
     &RESTART  SILENT
       BACKUP_COPIES  0
       &EACH
         MD  1
         GEO_OPT  1
         CELL_OPT  1
       &END EACH
     &END RESTART
     &RESTART_HISTORY  OFF
     &END RESTART_HISTORY
   &END PRINT
 &END MOTION
 &FORCE_EVAL
   METHOD  QS
   STRESS_TENSOR  ANALYTICAL
   &DFT
     BASIS_SET_FILE_NAME BASIS_MOLOPT
     BASIS_SET_FILE_NAME BASIS_MOLOPT_UCL
     POTENTIAL_FILE_NAME GTH_POTENTIALS
     WFN_RESTART_FILE_NAME ./parent_calc/aiida-RESTART.wfn
     UKS  F
     MULTIPLICITY  1
     CHARGE  0
     &SCF
       MAX_ITER_LUMO  10000
       MAX_SCF  500
       EPS_SCF     9.9999999999999995E-08
       SCF_GUESS  RESTART
       ADDED_MOS  100
       &OT  F
         MINIMIZER  DIIS
         PRECONDITIONER  FULL_ALL
       &END OT
       &DIAGONALIZATION  T
         ALGORITHM  STANDARD
       &END DIAGONALIZATION
       &OUTER_SCF  F
         EPS_SCF     9.9999999999999995E-08
         MAX_SCF  5
       &END OUTER_SCF
       &SMEAR  T
         METHOD  FERMI_DIRAC
         ELECTRONIC_TEMPERATURE     3.0000000000000000E+02
       &END SMEAR
       &MIXING  T
         METHOD  BROYDEN_MIXING
         ALPHA     4.0000000000000002E-01
         BETA     5.0000000000000000E-01
         NBUFFER  8
       &END MIXING
     &END SCF
     &QS
       EPS_DEFAULT     1.0000000000000000E-10
       EXTRAPOLATION  USE_PREV_WF
       METHOD  GPW
     &END QS
     &MGRID
       NGRIDS  4
       CUTOFF     2.5000000000000000E+02
       REL_CUTOFF     3.0000000000000000E+01
     &END MGRID
     &XC
       DENSITY_CUTOFF     1.0000000000000000E-10
       GRADIENT_CUTOFF     1.0000000000000000E-10
       TAU_CUTOFF     1.0000000000000000E-10
       &XC_FUNCTIONAL  NO_SHORTCUT
         &PBE  T
           PARAMETRIZATION  ORIG
         &END PBE
       &END XC_FUNCTIONAL
       &VDW_POTENTIAL
         POTENTIAL_TYPE  PAIR_POTENTIAL
         &PAIR_POTENTIAL
           TYPE  DFTD3(BJ)
           PARAMETER_FILE_NAME dftd3.dat
           REFERENCE_FUNCTIONAL PBE
         &END PAIR_POTENTIAL
       &END VDW_POTENTIAL
     &END XC
     &PRINT
       &MO_CUBES  SILENT
         ADD_LAST  SYMBOLIC
         WRITE_CUBE  F
         NLUMO  1
         NHOMO  1
         &EACH
           MD  0
           GEO_OPT  0
           CELL_OPT  0
         &END EACH
       &END MO_CUBES
       &MULLIKEN  ON
         ADD_LAST  SYMBOLIC
         &EACH
           MD  0
           GEO_OPT  0
           CELL_OPT  0
         &END EACH
       &END MULLIKEN
       &LOWDIN  OFF
       &END LOWDIN
       &HIRSHFELD  OFF
       &END HIRSHFELD
     &END PRINT
   &END DFT
   &SUBSYS
     &CELL
       A     4.0495799999999997E+00    0.0000000000000000E+00    0.0000000000000000E+00
       B     0.0000000000000000E+00    4.0495799999999997E+00    0.0000000000000000E+00
       C     0.0000000000000000E+00    0.0000000000000000E+00    4.0495799999999997E+00
       MULTIPLE_UNIT_CELL  1 1 1
     &END CELL
     &COORD
Al    4.6081986827621923E-03   -5.7803224009074668E-04   -1.3111510609727315E-04
Al   -2.7855656795504309E-03    2.0282060305046326E+00    2.0231336752157061E+00
Al    2.0149944167804117E+00    1.4843453105302003E-03    2.0193545844339842E+00
Al    2.0327629554025992E+00    2.0204676674281128E+00    7.2228472201809769E-03
     &END COORD
     &VELOCITY
           1.0372065742926460E-04   -1.3028379166287863E-05   -3.0667231764365095E-06
          -6.2744525292516876E-05    7.6923360065318783E-05   -3.7176104250483081E-05
          -2.2050843016630349E-04    3.3403559957866193E-05   -1.2225769611882962E-04
           1.7953275589381175E-04   -9.7297711863505724E-05    1.6249989365904041E-04
     &END VELOCITY
     &KIND Al
       BASIS_SET DZVP-MOLOPT-SR-GTH-q3
       MAGNETIZATION     0.0000000000000000E+00
       ELEMENT Al
       POTENTIAL GTH-PBE-q3
       &POTENTIAL
 2 1
  0.4500000000000000E+00 1 -0.7554761260000000E+01
 2
  0.4874352900000000E+00 2  0.6959938320000000E+01 -0.1888835840000000E+01
  0.2438476590000000E+01
  0.5621894900000000E+00 1  0.1865298570000000E+01
         # Potential name:  GTH-PBE-Q3  for symbol:  AL
         # Potential read from the potential filename: GTH_POTENTIALS
       &END POTENTIAL
     &END KIND
     &TOPOLOGY
       COORD_FILE_NAME aiida.coords.xyz
       COORD_FILE_FORMAT  XYZ
       NUMBER_OF_ATOMS  4
       MULTIPLE_UNIT_CELL  1 1 1
     &END TOPOLOGY
   &END SUBSYS
 &END FORCE_EVAL
