!!! Generated by AiiDA !!!
ChargeMethod Ewald
CutOff 12.0
EwaldPrecision 1e-06
Forcefield Local
NumberOfCycles 100
NumberOfInitializationCycles 10
PrintEvery 10.0
PrintPropertiesEvery 1000000
RemoveAtomNumberCodeFromLabel yes
RestartFile yes
SimulationType MonteCarlo
UseChargesFromCIFFile yes
WriteBinaryRestartFileEvery 1000
Framework 0
   FrameworkName framework_1
   ExternalPressure 300000.0
   ExternalTemperature 400
   HeliumVoidFraction 0.582
   UnitCells 4 2 2
Component 0 MoleculeName CO2
   MoleculeDefinition Local
   ReinsertionProbability 1.0
   RotationProbability 1.0
   SwapProbability 2.0
   TranslationProbability 1.0
   WidomProbability 0.0
