!!! Generated by AiiDA !!!
&FORCE_EVAL
   &DFT
      BASIS_SET_FILE_NAME BASIS_MOLOPT
      BASIS_SET_FILE_NAME BASIS_MOLOPT_UCL
      CHARGE 0
      &MGRID
         CUTOFF 300
         NGRIDS 4
         REL_CUTOFF 30
      &END MGRID
      MULTIPLICITY 1
      POTENTIAL_FILE_NAME GTH_POTENTIALS
      &PRINT
         &E_DENSITY_CUBE ON
            STRIDE 1 1 1
         &END E_DENSITY_CUBE
         &HIRSHFELD OFF
         &END HIRSHFELD
         &LOWDIN OFF
         &END LOWDIN
         &MO_CUBES
            ADD_LAST SYMBOLIC
            &EACH
               CELL_OPT 0
               GEO_OPT 0
               MD 0
            &END EACH
            NHOMO 1
            NLUMO 1
            WRITE_CUBE F
         &END MO_CUBES
         &MULLIKEN ON
            ADD_LAST SYMBOLIC
            &EACH
               CELL_OPT 0
               GEO_OPT 0
               MD 0
            &END EACH
         &END MULLIKEN
      &END PRINT
      &QS
         EPS_DEFAULT 1e-10
         EXTRAPOLATION ASPC
         METHOD GPW
      &END QS
      &SCF
         EPS_SCF 1e-07
         MAX_ITER_LUMO 10000
         MAX_SCF 50
         &MIXING
            ALPHA 0.4
            BETA 0.5
            METHOD DIRECT_P_MIXING
         &END MIXING
         &OT
            MINIMIZER DIIS
            PRECONDITIONER FULL_ALL
         &END OT
         &OUTER_SCF
            EPS_SCF 1e-07
            MAX_SCF 5
         &END OUTER_SCF
         SCF_GUESS RESTART
      &END SCF
      UKS .FALSE.
      WFN_RESTART_FILE_NAME ./parent_calc/aiida-RESTART.wfn
      &XC
         &VDW_POTENTIAL
            &PAIR_POTENTIAL
               PARAMETER_FILE_NAME dftd3.dat
               REFERENCE_FUNCTIONAL PBE
               TYPE DFTD3(BJ)
            &END PAIR_POTENTIAL
            POTENTIAL_TYPE PAIR_POTENTIAL
         &END VDW_POTENTIAL
         &XC_FUNCTIONAL
            &PBE
               PARAMETRIZATION ORIG
            &END PBE
         &END XC_FUNCTIONAL
      &END XC
   &END DFT
   METHOD QUICKSTEP
   STRESS_TENSOR ANALYTICAL
   &SUBSYS
      &CELL
         A 4.0             0.0             0.0            
         B 0.0             5.526478        0.0            
         C 0.0             0.0             4.596309       
      &END CELL
      &KIND H
         BASIS_SET DZVP-MOLOPT-SR-GTH-q1
         ELEMENT H
         MAGNETIZATION 0.0
         POTENTIAL GTH-PBE-q1
      &END KIND
      &KIND O
         BASIS_SET DZVP-MOLOPT-SR-GTH-q6
         ELEMENT O
         MAGNETIZATION 0.0
         POTENTIAL GTH-PBE-q6
      &END KIND
      &TOPOLOGY
         COORD_FILE_FORMAT XYZ
         COORD_FILE_NAME aiida.coords.xyz
      &END TOPOLOGY
   &END SUBSYS
&END FORCE_EVAL
&GLOBAL
   PRINT_LEVEL MEDIUM
   PROJECT aiida
   RUN_TYPE ENERGY
&END GLOBAL
&MOTION
   &GEO_OPT
      &BFGS
         TRUST_RADIUS [angstrom] 0.25
      &END BFGS
      MAX_DR [bohr] 0.0030
      MAX_FORCE [bohr^-1*hartree] 0.00045
      MAX_ITER 2
      OPTIMIZER BFGS
      RMS_DR [bohr] 0.0015
      RMS_FORCE [bohr^-1*hartree] 0.00030
      TYPE MINIMIZATION
   &END GEO_OPT
   &MD
      ENSEMBLE NVT
      STEPS 2
      TEMPERATURE 300
      &THERMOSTAT
         &CSVR
            TIMECON [fs] 100
         &END CSVR
         TYPE CSVR
      &END THERMOSTAT
      TIMESTEP [fs]  1.0
   &END MD
   &PRINT
      &CELL OFF
      &END CELL
      &FORCES OFF
      &END FORCES
      &RESTART
         BACKUP_COPIES 0
         &EACH
            CELL_OPT 1
            GEO_OPT 1
            MD 1
         &END EACH
      &END RESTART
      &RESTART_HISTORY OFF
      &END RESTART_HISTORY
      &STRESS OFF
      &END STRESS
      &TRAJECTORY
         &EACH
            CELL_OPT 1
            GEO_OPT 1
            MD 1
         &END EACH
         FORMAT DCD_ALIGNED_CELL
      &END TRAJECTORY
      &VELOCITIES OFF
      &END VELOCITIES
   &END PRINT
&END MOTION