!!! Generated by AiiDA !!!
ChargeMethod None
CutOff 12.0
Forcefield Local
NumberOfCycles 100
NumberOfInitializationCycles 100
PrintEvery 10.0
PrintPropertiesEvery 10000000000
RemoveAtomNumberCodeFromLabel yes
SimulationType MonteCarlo
UseChargesFromCIFFile yes
WriteBinaryRestartFileEvery 1000
Framework 0
   FrameworkName framework_1
   ExternalPressure 100000.0
   ExternalTemperature 298
   UnitCells 1 1 1
Component 0 MoleculeName Kr
   NumberOfIdentityChanges 2
   IdentityChangesList 0 1
   IdentityChangeProbability 2.0
   MolFraction 0.8
   MoleculeDefinition Local
   ReinsertionProbability 1.0
   SwapProbability 2.0
   TranslationProbability 1.0
Component 1 MoleculeName Xe
   NumberOfIdentityChanges 2
   IdentityChangesList 0 1
   IdentityChangeProbability 2.0
   MolFraction 0.2
   MoleculeDefinition Local
   ReinsertionProbability 1.0
   SwapProbability 2.0
   TranslationProbability 1.0
