!!! Generated by AiiDA !!!
&FORCE_EVAL
   &BSSE
      &CONFIGURATION
         CHARGE 0
         GLB_CONF 1 0
         MULTIPLICITY 1
         SUB_CONF 1 0
      &END CONFIGURATION
      &CONFIGURATION
         CHARGE 0
         GLB_CONF 0 1
         MULTIPLICITY 1
         SUB_CONF 0 1
      &END CONFIGURATION
      &CONFIGURATION
         CHARGE 0
         GLB_CONF 1 1
         MULTIPLICITY 1
         SUB_CONF 1 0
      &END CONFIGURATION
      &CONFIGURATION
         CHARGE 0
         GLB_CONF 1 1
         MULTIPLICITY 1
         SUB_CONF 0 1
      &END CONFIGURATION
      &CONFIGURATION
         CHARGE 0
         GLB_CONF 1 1
         MULTIPLICITY 1
         SUB_CONF 1 1
      &END CONFIGURATION
      &FRAGMENT
         LIST 1..54
      &END FRAGMENT
      &FRAGMENT
         LIST 55..57
      &END FRAGMENT
   &END BSSE
   &DFT
      BASIS_SET_FILE_NAME BASIS_MOLOPT
      BASIS_SET_FILE_NAME BASIS_MOLOPT_UCL
      CHARGE 0
      &MGRID
         CUTOFF 300
         NGRIDS 4
         REL_CUTOFF 30
      &END MGRID
      MULTIPLICITY 1
      POTENTIAL_FILE_NAME GTH_POTENTIALS
      &PRINT
         &HIRSHFELD OFF
         &END HIRSHFELD
         &LOWDIN OFF
         &END LOWDIN
         &MO_CUBES
            ADD_LAST SYMBOLIC
            &EACH
               CELL_OPT 0
               GEO_OPT 0
               MD 0
            &END EACH
            NHOMO 1
            NLUMO 1
            WRITE_CUBE F
         &END MO_CUBES
         &MULLIKEN ON
            ADD_LAST SYMBOLIC
            &EACH
               CELL_OPT 0
               GEO_OPT 0
               MD 0
            &END EACH
         &END MULLIKEN
      &END PRINT
      &QS
         EPS_DEFAULT 1e-10
         EXTRAPOLATION ASPC
         METHOD GPW
      &END QS
      &SCF
         EPS_SCF 0.0001
         MAX_ITER_LUMO 10000
         MAX_SCF 50
         &MIXING
            ALPHA 0.4
            BETA 0.5
            METHOD DIRECT_P_MIXING
         &END MIXING
         &OT
            MINIMIZER DIIS
            PRECONDITIONER FULL_ALL
         &END OT
         &OUTER_SCF
            EPS_SCF 0.0001
            MAX_SCF 5
         &END OUTER_SCF
         SCF_GUESS ATOMIC
      &END SCF
      UKS .FALSE.
      &XC
         &VDW_POTENTIAL
            &PAIR_POTENTIAL
               PARAMETER_FILE_NAME dftd3.dat
               REFERENCE_FUNCTIONAL PBE
               TYPE DFTD3(BJ)
            &END PAIR_POTENTIAL
            POTENTIAL_TYPE PAIR_POTENTIAL
         &END VDW_POTENTIAL
         &XC_FUNCTIONAL
            &PBE
               PARAMETRIZATION ORIG
            &END PBE
         &END XC_FUNCTIONAL
      &END XC
   &END DFT
   METHOD QUICKSTEP
   STRESS_TENSOR ANALYTICAL
   &SUBSYS
      &CELL
         A 6.99901         0.0             0.0            
         B -2.3339675345856 15.064165518126 0.0            
         C -2.3333255406633 -7.5318732560933 13.046302663032
      &END CELL
      &KIND C
         BASIS_SET DZVP-MOLOPT-SR-GTH-q4
         MAGNETIZATION 0
         POTENTIAL GTH-PBE-q4
      &END KIND
      &KIND C_ghost
         BASIS_SET DZVP-MOLOPT-SR-GTH-q4
         GHOST .TRUE.
      &END KIND
      &KIND H
         BASIS_SET DZVP-MOLOPT-SR-GTH-q1
         MAGNETIZATION 0
         POTENTIAL GTH-PBE-q1
      &END KIND
      &KIND H_ghost
         BASIS_SET DZVP-MOLOPT-SR-GTH-q1
         GHOST .TRUE.
      &END KIND
      &KIND O
         BASIS_SET DZVP-MOLOPT-SR-GTH-q6
         MAGNETIZATION 0
         POTENTIAL GTH-PBE-q6
      &END KIND
      &KIND O_ghost
         BASIS_SET DZVP-MOLOPT-SR-GTH-q6
         GHOST .TRUE.
      &END KIND
      &KIND Zn
         BASIS_SET DZVP-MOLOPT-SR-GTH-q12
         MAGNETIZATION 0
         POTENTIAL GTH-PBE-q12
      &END KIND
      &KIND Zn_ghost
         BASIS_SET DZVP-MOLOPT-SR-GTH-q12
         GHOST .TRUE.
      &END KIND
      &TOPOLOGY
         COORD_FILE_FORMAT XYZ
         COORD_FILE_NAME aiida.coords.xyz
      &END TOPOLOGY
   &END SUBSYS
&END FORCE_EVAL
&GLOBAL
   PRINT_LEVEL MEDIUM
   PROJECT aiida
   RUN_TYPE BSSE
&END GLOBAL
&MOTION
   &CONSTRAINT
      &FIXED_ATOMS
         LIST 1..54
      &END FIXED_ATOMS
   &END CONSTRAINT
   &GEO_OPT
      MAX_ITER 5
   &END GEO_OPT
   &PRINT
      &CELL OFF
      &END CELL
      &FORCES OFF
      &END FORCES
      &RESTART
         BACKUP_COPIES 0
         &EACH
            CELL_OPT 1
            GEO_OPT 1
            MD 1
         &END EACH
      &END RESTART
      &RESTART_HISTORY OFF
      &END RESTART_HISTORY
      &STRESS OFF
      &END STRESS
      &TRAJECTORY
         &EACH
            CELL_OPT 1
            GEO_OPT 1
            MD 1
         &END EACH
         FORMAT DCD_ALIGNED_CELL
      &END TRAJECTORY
      &VELOCITIES OFF
      &END VELOCITIES
   &END PRINT
&END MOTION