!!! Generated by AiiDA !!!
ChargeMethod None
CutOff 8.0
Forcefield Local
NumberOfCycles 300
NumberOfInitializationCycles 300
PrintEvery 30.0
PrintPropertiesEvery 1000000
RemoveAtomNumberCodeFromLabel yes
SimulationType MonteCarlo
UseChargesFromCIFFile yes
WriteBinaryRestartFileEvery 1000
Framework 0
   FrameworkName framework_1
   ExternalPressure 1000.0
   ExternalTemperature 87
   HeliumVoidFraction 0.8381
   UnitCells 7 4 1
Component 0 MoleculeName Ar
   CreateNumberOfMolecules 0
   MoleculeDefinition Local
   ReinsertionProbability 0.5
   SwapProbability 0.5
   TranslationProbability 1.0
   WidomProbability 0.0
