!!! Generated by AiiDA !!!
ChargeMethod None
CutOff 8.0
Forcefield Local
NumberOfCycles 1000
NumberOfInitializationCycles 0
PrintEvery 10000000000
PrintPropertiesEvery 100.0
RemoveAtomNumberCodeFromLabel yes
SimulationType MonteCarlo
UseChargesFromCIFFile yes
WriteBinaryRestartFileEvery 1000
Framework 0
   FrameworkName framework_1
   ExternalTemperature 87
   HeliumVoidFraction 0.8381
   UnitCells 7 4 1
Component 0 MoleculeName Ar
   MoleculeDefinition Local
   WidomProbability 1.0
