 # Version information for this restart file 
 # current date 2020-11-20 23:42:45.344
 # current working dir /private/var/folders/8y/7c7qkxcx5vxb749rt3sw5sh40000gp/T/tmp_jwlsj3b/87/a5/21c4-dab9-4d0b-b696-b22f3f233845
 # Program compiled at                              Tue Nov 17 02:38:14 CET 2020
 # Program compiled on                                             B126028.local
 # Program compiled for                           Darwin-IntelMacintosh-gfortran
 # Source code revision number                                         svn:18464
 &GLOBAL
   PRINT_LEVEL  MEDIUM
   PROJECT_NAME aiida
   RUN_TYPE  MD
 &END GLOBAL
 &MOTION
   &GEO_OPT
     TYPE  MINIMIZATION
     OPTIMIZER  BFGS
     MAX_ITER  2
     MAX_DR     3.0000000000000001E-03
     MAX_FORCE     4.4999999999999999E-04
     RMS_DR     1.5000000000000000E-03
     RMS_FORCE     2.9999999999999997E-04
     &BFGS
       TRUST_RADIUS     2.5000000000000000E-01
     &END BFGS
   &END GEO_OPT
   &MD
     ENSEMBLE  NVT
     STEPS  2
     TIMESTEP     9.9999999999999989E-01
     STEP_START_VAL  2
     TIME_START_VAL     1.9999999999999998E+00
     ECONS_START_VAL    -1.7203486086537300E+01
     TEMPERATURE     3.0000000000000000E+02
     &THERMOSTAT
       TYPE  CSVR
       &CSVR
         TIMECON     9.9999999999999986E+01
         &THERMOSTAT_ENERGY
               4.8788613809979580E-04
         &END THERMOSTAT_ENERGY
         &RNG_INIT
Wiener process for Thermostat # 1        1 F T F  -8.7582899713757190E-01        2234720878.0        1330613213.0        1282948940.0        2722634279.0         917507493.0        1466064762.0             12345.0             12345.0             12345.0             12345.0             12345.0             12345.0             12345.0             12345.0             12345.0             12345.0             12345.0             12345.0
         &END RNG_INIT
       &END CSVR
     &END THERMOSTAT
     &AVERAGES  T
       &RESTART_AVERAGES
         ITIMES_START  1
         AVECPU     2.4430584907531738E+00
         AVEHUGONIOT     0.0000000000000000E+00
         AVETEMP_BARO     0.0000000000000000E+00
         AVEPOT    -1.7205323848271078E+01
         AVEKIN     1.5282927358740439E-03
         AVETEMP     1.6086536685441772E+02
         AVEKIN_QM     0.0000000000000000E+00
         AVETEMP_QM     0.0000000000000000E+00
         AVEVOL     6.8566859969376776E+02
         AVECELL_A     7.5589045315425718E+00
         AVECELL_B     1.0443529899417582E+01
         AVECELL_C     8.6857652321174754E+00
         AVEALPHA     9.0000000000000000E+01
         AVEBETA     9.0000000000000000E+01
         AVEGAMMA     9.0000000000000000E+01
         AVE_ECONS     7.6463210089153577E+00
         AVE_PRESS     4.8670083987070439E+03
         AVE_PXX     2.7081848066016930E+04
       &END RESTART_AVERAGES
     &END AVERAGES
   &END MD
   &PRINT
     &TRAJECTORY  SILENT
       FORMAT  DCD_ALIGNED_CELL
       &EACH
         MD  1
         GEO_OPT  1
         CELL_OPT  1
       &END EACH
     &END TRAJECTORY
     &CELL  OFF
     &END CELL
     &VELOCITIES  OFF
     &END VELOCITIES
     &FORCES  OFF
     &END FORCES
     &STRESS  OFF
     &END STRESS
     &RESTART  SILENT
       BACKUP_COPIES  0
       &EACH
         MD  1
         GEO_OPT  1
         CELL_OPT  1
       &END EACH
     &END RESTART
     &RESTART_HISTORY  OFF
     &END RESTART_HISTORY
   &END PRINT
 &END MOTION
 &FORCE_EVAL
   METHOD  QS
   STRESS_TENSOR  ANALYTICAL
   &DFT
     BASIS_SET_FILE_NAME BASIS_MOLOPT
     BASIS_SET_FILE_NAME BASIS_MOLOPT_UCL
     POTENTIAL_FILE_NAME GTH_POTENTIALS
     WFN_RESTART_FILE_NAME ./parent_calc/aiida-RESTART.wfn
     UKS  F
     MULTIPLICITY  1
     CHARGE  0
     &SCF
       MAX_ITER_LUMO  10000
       MAX_SCF  50
       EPS_SCF     9.9999999999999995E-08
       SCF_GUESS  RESTART
       &OT  T
         MINIMIZER  DIIS
         PRECONDITIONER  FULL_ALL
       &END OT
       &OUTER_SCF  T
         EPS_SCF     9.9999999999999995E-08
         MAX_SCF  5
       &END OUTER_SCF
       &MIXING  T
         METHOD  DIRECT_P_MIXING
         ALPHA     4.0000000000000002E-01
         BETA     5.0000000000000000E-01
       &END MIXING
     &END SCF
     &QS
       EPS_DEFAULT     1.0000000000000000E-10
       EXTRAPOLATION  ASPC
       METHOD  GPW
     &END QS
     &MGRID
       NGRIDS  4
       CUTOFF     3.0000000000000000E+02
       REL_CUTOFF     3.0000000000000000E+01
     &END MGRID
     &XC
       DENSITY_CUTOFF     1.0000000000000000E-10
       GRADIENT_CUTOFF     1.0000000000000000E-10
       TAU_CUTOFF     1.0000000000000000E-10
       &XC_FUNCTIONAL  NO_SHORTCUT
         &PBE  T
           PARAMETRIZATION  ORIG
         &END PBE
       &END XC_FUNCTIONAL
       &VDW_POTENTIAL
         POTENTIAL_TYPE  PAIR_POTENTIAL
         &PAIR_POTENTIAL
           TYPE  DFTD3(BJ)
           PARAMETER_FILE_NAME dftd3.dat
           REFERENCE_FUNCTIONAL PBE
         &END PAIR_POTENTIAL
       &END VDW_POTENTIAL
     &END XC
     &PRINT
       &MO_CUBES  SILENT
         ADD_LAST  SYMBOLIC
         WRITE_CUBE  F
         NLUMO  1
         NHOMO  1
         &EACH
           MD  0
           GEO_OPT  0
           CELL_OPT  0
         &END EACH
       &END MO_CUBES
       &MULLIKEN  ON
         ADD_LAST  SYMBOLIC
         &EACH
           MD  0
           GEO_OPT  0
           CELL_OPT  0
         &END EACH
       &END MULLIKEN
       &LOWDIN  OFF
       &END LOWDIN
       &HIRSHFELD  OFF
       &END HIRSHFELD
     &END PRINT
   &END DFT
   &SUBSYS
     &CELL
       A     4.0000000000000000E+00    0.0000000000000000E+00    0.0000000000000000E+00
       B     0.0000000000000000E+00    5.5264780000000000E+00    0.0000000000000000E+00
       C     0.0000000000000000E+00    0.0000000000000000E+00    4.5963089999999998E+00
       MULTIPLE_UNIT_CELL  1 1 1
     &END CELL
     &COORD
O    2.0019137708632715E+00    2.7645775532970576E+00    2.6079269210966398E+00
H    2.0123235092446259E+00    3.5127338625905637E+00    1.9817362836565202E+00
H    1.9573439680496747E+00    1.9924986305466692E+00    1.9581301863830363E+00
     &END COORD
     &VELOCITY
           3.8604269563086938E-05    3.3664202273359700E-06    4.5074341311500285E-05
           2.6032827260489947E-04   -1.7259895575420840E-04   -2.6536659962459814E-04
          -8.6905112019158804E-04    1.1933506878477702E-04   -4.3152082666823280E-04
     &END VELOCITY
     &KIND H
       BASIS_SET DZVP-MOLOPT-SR-GTH-q1
       MAGNETIZATION     0.0000000000000000E+00
       POTENTIAL GTH-PBE-q1
       &POTENTIAL
 1
  0.2000000000000000E+00 2 -0.4178900440000000E+01  0.7244633100000000E+00
 0
         # Potential name:  GTH-PBE-Q1  for symbol:  H
         # Potential read from the potential filename: GTH_POTENTIALS
       &END POTENTIAL
     &END KIND
     &KIND O
       BASIS_SET DZVP-MOLOPT-SR-GTH-q6
       MAGNETIZATION     0.0000000000000000E+00
       POTENTIAL GTH-PBE-q6
       &POTENTIAL
 2 4
  0.2445543000000000E+00 2 -0.1666721480000000E+02  0.2487311320000000E+01
 2
  0.2209559200000000E+00 1  0.1833745811000000E+02
  0.2113324700000000E+00 0
         # Potential name:  GTH-PBE-Q6  for symbol:  O
         # Potential read from the potential filename: GTH_POTENTIALS
       &END POTENTIAL
     &END KIND
     &TOPOLOGY
       COORD_FILE_NAME aiida.coords.xyz
       COORD_FILE_FORMAT  XYZ
       NUMBER_OF_ATOMS  3
       MULTIPLE_UNIT_CELL  1 1 1
     &END TOPOLOGY
   &END SUBSYS
 &END FORCE_EVAL
