 # Version information for this restart file 
 # current date 2020-11-20 04:03:36.006
 # current working dir /private/var/folders/8y/7c7qkxcx5vxb749rt3sw5sh40000gp/T/tmpqzndl1tn/84/15/0729-a317-4af9-b6c7-78df8e7ffd80
 # Program compiled at                              Tue Nov 17 02:38:14 CET 2020
 # Program compiled on                                             B126028.local
 # Program compiled for                           Darwin-IntelMacintosh-gfortran
 # Source code revision number                                         svn:18464
 &GLOBAL
   PRINT_LEVEL  MEDIUM
   PROJECT_NAME aiida
   RUN_TYPE  GEO_OPT
 &END GLOBAL
 &MOTION
   &GEO_OPT
     MAX_ITER  5
     STEP_START_VAL  5
   &END GEO_OPT
   &CONSTRAINT
     &FIXED_ATOMS
       LIST  1..54
     &END FIXED_ATOMS
   &END CONSTRAINT
   &PRINT
     &TRAJECTORY  SILENT
       FORMAT  DCD_ALIGNED_CELL
       &EACH
         MD  1
         GEO_OPT  1
         CELL_OPT  1
       &END EACH
     &END TRAJECTORY
     &CELL  OFF
     &END CELL
     &VELOCITIES  OFF
     &END VELOCITIES
     &FORCES  OFF
     &END FORCES
     &STRESS  OFF
     &END STRESS
     &RESTART  SILENT
       BACKUP_COPIES  0
       &EACH
         MD  1
         GEO_OPT  1
         CELL_OPT  1
       &END EACH
     &END RESTART
     &RESTART_HISTORY  OFF
     &END RESTART_HISTORY
   &END PRINT
 &END MOTION
 &FORCE_EVAL
   METHOD  QS
   STRESS_TENSOR  ANALYTICAL
   &DFT
     BASIS_SET_FILE_NAME BASIS_MOLOPT
     BASIS_SET_FILE_NAME BASIS_MOLOPT_UCL
     POTENTIAL_FILE_NAME GTH_POTENTIALS
     UKS  F
     MULTIPLICITY  1
     CHARGE  0
     &SCF
       MAX_ITER_LUMO  10000
       MAX_SCF  50
       EPS_SCF     1.0000000000000000E-04
       SCF_GUESS  ATOMIC
       &OT  T
         MINIMIZER  DIIS
         PRECONDITIONER  FULL_ALL
       &END OT
       &OUTER_SCF  T
         EPS_SCF     1.0000000000000000E-04
         MAX_SCF  5
       &END OUTER_SCF
       &MIXING  T
         METHOD  DIRECT_P_MIXING
         ALPHA     4.0000000000000002E-01
         BETA     5.0000000000000000E-01
       &END MIXING
     &END SCF
     &QS
       EPS_DEFAULT     1.0000000000000000E-10
       EXTRAPOLATION  ASPC
       METHOD  GPW
     &END QS
     &MGRID
       NGRIDS  4
       CUTOFF     3.0000000000000000E+02
       REL_CUTOFF     3.0000000000000000E+01
     &END MGRID
     &XC
       DENSITY_CUTOFF     1.0000000000000000E-10
       GRADIENT_CUTOFF     1.0000000000000000E-10
       TAU_CUTOFF     1.0000000000000000E-10
       &XC_FUNCTIONAL  NO_SHORTCUT
         &PBE  T
           PARAMETRIZATION  ORIG
         &END PBE
       &END XC_FUNCTIONAL
       &VDW_POTENTIAL
         POTENTIAL_TYPE  PAIR_POTENTIAL
         &PAIR_POTENTIAL
           TYPE  DFTD3(BJ)
           PARAMETER_FILE_NAME dftd3.dat
           REFERENCE_FUNCTIONAL PBE
         &END PAIR_POTENTIAL
       &END VDW_POTENTIAL
     &END XC
     &PRINT
       &MO_CUBES  SILENT
         ADD_LAST  SYMBOLIC
         WRITE_CUBE  F
         NLUMO  1
         NHOMO  1
         &EACH
           MD  0
           GEO_OPT  0
           CELL_OPT  0
         &END EACH
       &END MO_CUBES
       &MULLIKEN  ON
         ADD_LAST  SYMBOLIC
         &EACH
           MD  0
           GEO_OPT  0
           CELL_OPT  0
         &END EACH
       &END MULLIKEN
       &LOWDIN  OFF
       &END LOWDIN
       &HIRSHFELD  OFF
       &END HIRSHFELD
     &END PRINT
   &END DFT
   &SUBSYS
     &CELL
       A     6.9990100000000002E+00    0.0000000000000000E+00    0.0000000000000000E+00
       B    -2.3339675345856001E+00    1.5064165518126002E+01    0.0000000000000000E+00
       C    -2.3333255406633002E+00   -7.5318732560933004E+00    1.3046302663032000E+01
       MULTIPLE_UNIT_CELL  1 1 1
     &END CELL
     &COORD
C    6.4632357323681999E-01   -2.0121434875705000E+00    7.9548525857571013E+00
C   -3.1719921618239000E-01   -2.8800771977698005E+00    7.2191715785887007E+00
C    5.3192336539066005E+00   -2.5153772618458001E+00    7.0005155459562998E+00
C    4.5120221208186004E+00   -3.4205188491262004E+00    6.3029297425640003E+00
C    2.9789912934671001E+00    1.6498697331102001E+00    7.3261512604256005E+00
C    2.0155093514089999E+00    2.7210763753367999E+00    6.9420681100259003E+00
C    6.5286875734827998E-01    2.7279374025393999E+00    7.3675080398674009E+00
C   -1.5446119308948003E-01    3.7846816246168000E+00    6.9322833830287012E+00
C   -1.6871012717898000E+00    3.6329533540060999E-01    1.0812123331988001E+01
C   -2.6506643434769006E+00    1.6032368249369000E-01    1.1931626563503000E+01
C    2.9857216063147005E+00   -2.1146324102070002E-01    1.1724973129320002E+01
C    2.1784423099650998E+00   -3.6291523416260002E-01    1.2857783589551001E+01
C    1.6856032703822001E+00    9.5451136391467006E+00    5.0915805403015000E+00
C    2.6490560697014001E+00    1.0413047349346002E+01    5.8272615474699005E+00
C   -2.9873768003876999E+00    1.0048347413422002E+01    6.0459175801022997E+00
C   -2.1801419276243004E+00    1.0953338359047001E+01    6.7435033834946001E+00
C   -6.4713445603430009E-01    5.8831004226559998E+00    5.7205427916863005E+00
C    3.1637082569920000E-01    4.8117431387743004E+00    6.1046259420859004E+00
C    1.6790347369291003E+00    4.8049574344943000E+00    5.6793164752711007E+00
C    2.4862946972669002E+00    3.7482132124167999E+00    6.1145411321098004E+00
C    4.0189814553179000E+00    7.1692982183227008E+00    2.2347011831507002E+00
C    4.9824978701604996E+00    7.3723451899621999E+00    1.1150674886092999E+00
C   -6.5388806354498008E-01    7.7441321092865003E+00    1.3214599967384999E+00
C    1.5343788964918001E-01    7.8955087836958002E+00    1.8877999953407001E-01
H    3.4703070669236999E+00   -3.1578780081734998E+00    6.1232821548940004E+00
H   -1.1962149578451000E+00    3.8088647074807001E+00    7.2496999268202007E+00
H    1.1366898501602001E+00   -6.4981447671164005E-01    1.2720145096455999E+01
H   -1.1384268737293002E+00    1.0690697518094002E+01    6.9231509711644996E+00
H    3.5280951349532002E+00    3.7239548066303998E+00    5.7969941252916000E+00
H    1.1951436765232999E+00    8.1824833491674998E+00    3.2654895565569003E-01
O    1.9105425471250001E-01   -9.1425926500835009E-01    8.4430452314077993E+00
O    1.8646335491592003E+00   -2.3701414851069003E+00    8.0729216248575000E+00
O    4.7571126424186003E+00   -1.3478223987932003E+00    7.4186495463064999E+00
O    2.5240042894489001E+00    6.7801644348420997E-01    8.0328694756820003E+00
O    4.1974901060251000E+00    1.7267663712413002E+00    6.9570713580883998E+00
O    9.0859347691776005E-02    1.7820713298988002E+00    8.1695947275905993E+00
O   -2.1420951345104005E+00    2.3696311496406003E-01    9.6169515450273995E+00
O   -4.6870042744557006E-01    6.4454733646116003E-01    1.1063134195224000E+01
O    2.4238371913900005E+00   -4.3322735435531007E-01    1.0504621978219999E+01
O    2.1408026052264000E+00    8.4470034561967999E+00    4.6035183576775003E+00
O    4.6722331077967999E-01    9.9028856762953019E+00    4.9736419642277001E+00
O   -2.4252557824797001E+00    8.8805665899816013E+00    5.6279140427787002E+00
O   -1.9210077266542000E-01    6.8546524289716011E+00    5.0138245764298004E+00
O   -1.8656332685923003E+00    5.8062037845249996E+00    6.0896226940234000E+00
O    2.2409974897409999E+00    5.7508988258674005E+00    4.8770993245212004E+00
O    4.4739520169554003E+00    7.2955551116465998E+00    3.4294815810312000E+00
O    2.8005339541291003E+00    6.8881215359947001E+00    1.9835598568874002E+00
O   -9.1980308944942010E-02    7.9657455809659004E+00    2.5418111478385002E+00
Zn   -1.3893688113560001E+00    4.8669691138837007E-01    7.7445461868290009E+00
Zn    9.4353761734198005E-01    5.8245940544237995E-01    9.5954251456334010E+00
Zn    3.2766752071589003E+00   -1.0682100588129999E+00    8.7530253826814022E+00
Zn    3.7212489884641999E+00    7.0461226027226997E+00    5.3021478652828007E+00
Zn    1.3883658994415002E+00    6.9502094670135008E+00    3.4512689064785005E+00
Zn   -9.4481834722001012E-01    8.6009542500015019E+00    4.2935382064037997E+00
C    9.9041554362332185E-01    3.1789687704065761E+00    2.9782798021588737E+00
O    9.0701166928600774E-01    4.3329664364057159E+00    2.7601847796148529E+00
O    1.0698941198580731E+00    2.0241893822299839E+00    3.1847615185984752E+00
     &END COORD
     &KIND C
       BASIS_SET DZVP-MOLOPT-SR-GTH-q4
       MAGNETIZATION     0.0000000000000000E+00
       POTENTIAL GTH-PBE-q4
       &POTENTIAL
 2 2
  0.3384712400000000E+00 2 -0.8803673979999999E+01  0.1339210850000000E+01
 2
  0.3025757500000000E+00 1  0.9622486650000001E+01
  0.2915069400000000E+00 0
         # Potential name:  GTH-PBE-Q4  for symbol:  C
         # Potential read from the potential filename: GTH_POTENTIALS
       &END POTENTIAL
     &END KIND
     &KIND C_ghost
       BASIS_SET DZVP-MOLOPT-SR-GTH-q4
       GHOST  T
     &END KIND
     &KIND H
       BASIS_SET DZVP-MOLOPT-SR-GTH-q1
       MAGNETIZATION     0.0000000000000000E+00
       POTENTIAL GTH-PBE-q1
       &POTENTIAL
 1
  0.2000000000000000E+00 2 -0.4178900440000000E+01  0.7244633100000000E+00
 0
         # Potential name:  GTH-PBE-Q1  for symbol:  H
         # Potential read from the potential filename: GTH_POTENTIALS
       &END POTENTIAL
     &END KIND
     &KIND H_ghost
       BASIS_SET DZVP-MOLOPT-SR-GTH-q1
       GHOST  T
     &END KIND
     &KIND O
       BASIS_SET DZVP-MOLOPT-SR-GTH-q6
       MAGNETIZATION     0.0000000000000000E+00
       POTENTIAL GTH-PBE-q6
       &POTENTIAL
 2 4
  0.2445543000000000E+00 2 -0.1666721480000000E+02  0.2487311320000000E+01
 2
  0.2209559200000000E+00 1  0.1833745811000000E+02
  0.2113324700000000E+00 0
         # Potential name:  GTH-PBE-Q6  for symbol:  O
         # Potential read from the potential filename: GTH_POTENTIALS
       &END POTENTIAL
     &END KIND
     &KIND O_ghost
       BASIS_SET DZVP-MOLOPT-SR-GTH-q6
       GHOST  T
     &END KIND
     &KIND Zn
       BASIS_SET DZVP-MOLOPT-SR-GTH-q12
       MAGNETIZATION     0.0000000000000000E+00
       POTENTIAL GTH-PBE-q12
       &POTENTIAL
 2 0 10
  0.5100000000000000E+00 0
 3
  0.4003164400000000E+00 3  0.1153004133000000E+02 -0.8791898150000000E+01  0.3145086440000000E+01
  0.1646577518000000E+02 -0.8120578269999999E+01
  0.6445509180000000E+01
  0.5431823300000000E+00 2  0.2597195120000000E+01 -0.5942627500000000E+00
  0.7031411700000000E+00
  0.2509588500000000E+00 1 -0.1446695795000000E+02
         # Potential name:  GTH-PBE-Q12  for symbol:  ZN
         # Potential read from the potential filename: GTH_POTENTIALS
       &END POTENTIAL
     &END KIND
     &KIND Zn_ghost
       BASIS_SET DZVP-MOLOPT-SR-GTH-q12
       GHOST  T
     &END KIND
     &TOPOLOGY
       COORD_FILE_NAME aiida.coords.xyz
       COORD_FILE_FORMAT  XYZ
       NUMBER_OF_ATOMS  57
       MULTIPLE_UNIT_CELL  1 1 1
     &END TOPOLOGY
   &END SUBSYS
 &END FORCE_EVAL
